p cnf 22 9
e 1 2 0
a 3 0
e 4 0
a 5 0
e 6 7 8 0
a 9 10 0
e 11 0
a 12 0
e 13 0
a 14 15 16 17 0
e 18 0
a 19 0
e 20 0
a 21 0
e 22 0
-22 -7 3 -16 -14 0
-4 3 0
7 -5 -14 -8 -15 0
-12 -7 -17 0
1 4 10 -11 -3 0
22 -4 -16 0
10 -1 -15 16 0
-12 19 -16 0
21 20 16 19 -2 0
